p wcnf 190 223 224 
1 -102 -156 0 
1 87 29 0 
1 -88 -38 0 
1 136 42 0 
1 -118 152 0 
1 100 -177 0 
1 164 2 0 
1 -175 -72 0 
1 85 173 0 
1 3 -163 0 
1 139 -63 0 
1 -101 14 0 
1 71 -10 0 
1 138 36 0 
1 -54 58 0 
1 145 -11 0 
1 -35 -114 0 
1 -153 -41 0 
1 67 75 0 
1 -136 90 0 
1 179 91 0 
1 -60 -163 0 
1 -56 -116 0 
1 -53 72 0 
1 -162 -16 0 
1 34 156 0 
1 124 -49 0 
1 128 -3 0 
1 -150 -82 0 
1 86 -171 0 
1 86 -139 0 
1 -39 -172 0 
1 117 52 0 
1 -67 -102 0 
1 -162 102 0 
1 -3 -154 0 
1 -159 52 0 
1 57 168 0 
1 113 -169 0 
1 -90 137 0 
1 27 54 0 
1 139 -175 0 
1 161 176 0 
1 51 -101 0 
1 147 -135 0 
1 16 -188 0 
1 141 171 0 
1 141 83 0 
1 52 -178 0 
1 -3 113 0 
1 45 -145 0 
1 141 85 0 
1 -11 -137 0 
1 -43 112 0 
1 76 -40 0 
1 101 -81 0 
1 21 140 0 
1 135 103 0 
1 186 -155 0 
1 40 -110 0 
1 63 -155 0 
1 115 -136 0 
1 -133 -94 0 
1 -42 -147 0 
1 -32 -26 0 
1 185 43 0 
1 35 47 0 
1 174 -28 0 
1 -48 9 0 
1 27 151 0 
1 -177 -91 0 
1 -77 -24 0 
1 158 43 0 
1 -43 -111 0 
1 -171 76 0 
1 1 79 0 
1 48 56 0 
1 -112 25 0 
1 -104 155 0 
1 68 185 0 
1 -63 -47 0 
1 -98 -63 0 
1 -115 -122 0 
1 24 -87 0 
1 -141 -35 0 
1 -184 13 0 
1 46 -74 0 
1 183 -181 0 
1 181 105 0 
1 183 190 0 
1 -80 144 0 
1 70 144 0 
1 -125 180 0 
1 -129 85 0 
1 -65 172 0 
1 -171 28 0 
1 -175 -143 0 
1 75 188 0 
1 -36 -43 0 
1 150 53 0 
1 -152 -9 0 
1 -139 -37 0 
1 -108 86 0 
1 -159 -73 0 
1 144 -98 0 
1 103 -122 0 
1 69 163 0 
1 -176 189 0 
1 -102 34 0 
1 149 66 0 
1 184 134 0 
1 37 -98 0 
1 -97 84 0 
1 -107 149 0 
1 164 88 0 
1 169 -145 0 
1 -57 -187 0 
1 94 51 0 
1 28 26 0 
1 102 177 0 
1 185 -66 0 
1 -10 -90 0 
1 -39 -145 0 
1 -167 120 0 
1 143 -19 0 
1 -63 8 0 
1 -96 116 0 
1 -147 -18 0 
1 13 3 0 
1 188 37 0 
1 -38 101 0 
1 -106 -188 0 
1 179 -87 0 
1 75 148 0 
1 -102 20 0 
1 -2 104 0 
1 25 -82 0 
1 -108 172 0 
1 145 -123 0 
1 153 -29 0 
1 -108 73 0 
1 -94 72 0 
1 35 178 0 
1 -113 -67 0 
1 174 93 0 
1 12 35 0 
1 114 174 0 
1 130 -163 0 
1 26 -179 0 
1 -121 -76 0 
1 63 -170 0 
1 -181 -124 0 
1 155 -157 0 
1 90 131 0 
1 -136 33 0 
1 -83 9 0 
1 66 48 0 
1 120 -63 0 
1 169 -105 0 
1 -116 90 0 
1 -139 136 0 
1 36 21 0 
1 -99 -43 0 
1 -160 104 0 
1 -111 60 0 
1 29 38 0 
1 -125 93 0 
1 -83 -104 0 
1 -27 53 0 
1 -154 135 0 
1 14 -85 0 
1 -91 -118 0 
1 88 129 0 
1 183 -27 0 
1 164 142 0 
1 -122 181 0 
1 104 -43 0 
1 17 -27 0 
1 -164 92 0 
1 -116 -98 0 
1 103 -55 0 
1 129 61 0 
1 -82 -162 0 
1 -4 135 0 
1 -105 -146 0 
1 -144 11 0 
1 -132 61 0 
1 -107 -24 0 
1 32 5 0 
1 -142 -35 0 
1 -154 -129 0 
1 16 -134 0 
1 -97 86 0 
1 -72 -182 0 
1 -164 136 0 
1 131 106 0 
1 31 -47 0 
1 76 -124 0 
1 172 53 0 
1 182 -63 0 
1 -180 -71 0 
1 87 -180 0 
1 178 -53 0 
1 84 157 0 
1 30 -158 0 
1 -137 -44 0 
1 -83 60 0 
1 -6 -53 0 
1 -68 175 0 
1 -107 -89 0 
1 177 -27 0 
1 -185 -8 0 
1 -94 -95 0 
1 57 149 0 
1 152 31 0 
1 -129 -168 0 
1 -187 -35 0 
1 3 -171 0 
1 28 -100 0 
1 -124 19 0 
1 183 -132 0 
1 -68 12 0 
1 148 58 0 
